p tw 226 369
1 2
1 152
1 179
2 176
2 180
3 4
3 5
3 10
4 6
4 7
5 7
5 10
5 20
6 8
6 9
7 21
8 11
8 14
9 14
9 21
10 29
11 12
11 13
12 15
12 16
13 16
13 17
14 17
14 19
15 44
15 220
16 18
16 44
17 18
18 23
18 54
19 22
19 23
20 29
20 35
21 27
22 24
22 25
23 24
23 56
24 85
25 26
25 27
26 85
26 90
27 35
27 37
28 37
28 95
28 96
29 30
30 31
30 32
31 33
31 34
32 33
32 35
32 38
33 34
33 110
34 109
35 36
36 39
36 40
37 40
37 41
38 110
38 111
39 42
39 111
40 42
41 43
41 96
41 135
42 43
43 112
43 116
44 46
45 47
45 48
45 55
45 220
46 54
46 55
47 221
47 224
48 52
48 58
49 50
49 51
49 53
49 60
50 222
50 224
51 52
51 59
52 224
53 68
53 69
53 223
54 55
55 56
56 57
57 58
57 85
57 87
58 59
58 61
59 63
60 63
60 68
61 62
61 65
62 63
62 64
63 67
64 66
64 67
64 93
65 66
65 87
66 88
66 94
67 79
67 101
68 78
68 79
69 70
69 217
69 225
70 72
70 78
71 72
71 75
71 219
72 81
72 225
73 74
73 75
73 77
74 218
74 226
75 76
76 81
76 82
77 83
77 226
78 80
79 80
79 102
80 81
82 84
82 102
82 103
83 84
83 193
84 197
84 199
85 89
86 87
86 88
86 89
88 92
89 91
90 91
90 95
91 92
92 98
92 100
93 94
93 101
93 150
94 100
95 97
96 97
97 98
98 99
99 100
99 138
100 139
101 102
102 104
103 105
103 199
104 105
104 106
104 108
105 153
105 202
106 107
106 150
107 152
107 157
107 210
108 153
108 210
109 113
109 115
110 113
111 112
112 117
112 118
113 114
114 115
114 117
114 119
115 120
115 121
116 122
116 142
117 118
118 122
119 122
119 124
119 126
120 123
120 127
121 123
121 124
122 125
123 124
123 127
124 128
125 126
125 144
126 128
127 128
127 129
128 129
129 130
129 131
130 131
130 132
131 134
132 133
132 134
133 144
133 164
134 164
134 169
135 136
135 142
136 137
136 138
137 143
137 145
137 146
138 140
139 140
139 155
140 141
141 145
141 148
142 143
143 159
144 161
144 163
145 147
146 147
146 165
147 149
148 155
148 156
149 156
149 167
150 151
151 152
151 154
152 154
153 203
153 205
154 155
155 178
156 178
157 158
157 182
158 184
158 214
159 160
159 161
160 165
160 166
161 162
162 163
162 166
163 164
165 167
166 167
166 168
166 171
168 174
168 179
169 170
169 171
170 172
170 175
171 172
172 173
173 174
173 175
173 177
174 176
175 177
176 191
177 191
178 179
180 186
180 192
181 182
181 183
181 185
182 184
183 184
183 189
184 190
185 186
185 188
186 187
187 188
187 192
188 189
189 190
190 215
191 192
193 194
193 195
194 196
194 226
195 196
195 197
196 200
197 198
198 199
198 200
200 201
201 202
201 209
202 203
203 204
204 206
204 207
205 209
205 210
206 207
206 208
207 208
208 209
210 211
211 212
211 213
212 213
212 214
213 215
214 215
216 217
216 218
216 223
216 225
217 223
218 219
219 225
220 221
221 222
222 223
